14	3
81	3
51	3
42	2
7	2
5	2
61	2
19	2
49	2
78	2
44	1
43	1
21	1
73	1
9	1
1	16
15	16
58	16
37	16
79	7
46	7
12	7
30	7
71	15
10	15
40	15
41	15
56	10
72	10
32	10
24	10
36	5
11	5
64	5
27	5
62	5
66	9
6	9
26	9
25	9
50	9
48	4
53	4
74	4
23	4
65	4
67	4
3	4
16	4
59	18
38	18
47	18
13	11
45	11
34	11
68	17
77	17
33	17
17	8
60	8
54	8
80	8
31	14
76	14
69	14
52	14
63	14
28	12
57	12
29	12
4	12
20	6
70	6
75	6
39	6
22	0
35	0
2	0
55	13
18	13
8	13
